50
3 1 1
3 2 9
4 0 7
4 1 6
4 3 8
5 0 4
5 1 1
5 2 10
5 3 10
5 4 2
6 0 3
6 1 6
6 2 9
6 3 8
6 4 4
6 5 9
7 0 9
7 1 7
7 2 7
7 3 5
7 5 9
7 6 1
8 0 8
8 1 5
8 2 2
8 3 3
8 5 6
8 6 5
8 7 1
9 0 5
9 1 6
9 2 8
9 3 6
9 4 10
9 5 3
9 7 7
10 0 8
10 2 4
10 3 4
10 4 5
10 5 8
10 6 2
10 7 9
10 8 4
10 9 6
11 0 4
11 1 6
11 2 5
11 3 6
11 4 8
11 5 10
11 7 7
11 8 6
11 9 1
11 10 7
12 0 2
12 3 3
12 4 2
12 5 3
12 6 3
12 7 10
12 8 5
12 9 3
12 10 3
13 0 10
13 1 1
13 2 1
13 3 5
13 4 3
13 5 8
13 6 8
13 7 3
13 8 5
13 9 3
13 10 2
13 11 4
13 12 9
14 0 6
14 1 1
14 2 7
14 3 9
14 4 2
14 7 8
14 8 1
14 9 9
14 10 3
14 11 1
14 12 4
14 13 3
15 0 8
15 1 8
15 2 2
15 3 3
15 4 2
15 5 8
15 6 9
15 7 10
15 8 5
15 10 5
15 11 1
15 12 2
15 13 9
15 14 6
16 0 1
16 1 4
16 2 5
16 3 1
16 4 8
16 6 2
16 8 1
16 9 6
16 10 5
16 11 5
16 12 8
16 13 2
16 14 8
17 1 9
17 2 3
17 3 5
17 4 4
17 5 8
17 8 5
17 9 9
17 10 4
17 11 10
17 12 7
17 13 3
17 14 10
18 0 1
18 1 8
18 2 3
18 4 9
18 5 4
18 6 4
18 7 1
18 8 9
18 9 8
18 10 3
18 11 8
18 12 3
18 13 6
18 14 6
18 15 6
18 16 3
18 17 6
19 0 9
19 1 7
19 2 8
19 3 6
19 5 6
19 6 6
19 7 4
19 8 2
19 9 5
19 10 3
19 11 9
19 12 4
19 13 2
19 14 1
19 15 5
19 16 5
19 17 9
19 18 1
20 0 4
20 2 1
20 3 8
20 4 5
20 5 3
20 6 10
20 7 3
20 8 7
20 9 5
20 11 8
20 12 2
20 13 4
20 14 6
20 15 3
20 16 1
20 17 1
20 18 3
21 1 6
21 2 3
21 3 7
21 5 6
21 6 6
21 8 3
21 9 6
21 10 6
21 11 9
21 13 2
21 14 8
21 15 2
21 16 3
21 19 6
21 20 10
22 1 2
22 2 6
22 3 8
22 4 1
22 5 7
22 6 3
22 7 7
22 8 9
22 9 10
22 10 2
22 11 10
22 12 8
22 13 7
22 14 5
22 16 2
22 17 5
22 18 10
22 19 10
22 20 2
22 21 10
23 0 9
23 1 2
23 2 7
23 3 2
23 4 6
23 5 4
23 6 3
23 7 4
23 8 2
23 9 3
23 11 8
23 12 4
23 13 8
23 14 10
23 15 6
23 16 6
23 17 7
23 18 2
23 19 10
23 21 6
23 22 8
24 0 6
24 1 6
24 2 4
24 3 9
24 5 4
24 6 2
24 7 3
24 8 1
24 9 10
24 10 4
24 11 4
24 12 8
24 13 5
24 16 2
24 17 10
24 18 1
24 19 7
24 20 8
24 21 7
24 22 8
24 23 10
25 0 10
25 1 8
25 2 8
25 4 5
25 5 1
25 6 8
25 7 2
25 8 9
25 9 5
25 10 5
25 12 9
25 13 3
25 14 1
25 15 4
25 16 1
25 17 6
25 18 8
25 20 1
25 21 3
25 22 3
25 23 4
25 24 10
26 0 5
26 1 2
26 3 10
26 4 10
26 5 10
26 6 4
26 7 2
26 8 2
26 10 6
26 11 1
26 12 6
26 13 8
26 14 6
26 15 10
26 18 9
26 19 4
26 20 10
26 21 10
26 22 1
26 23 6
26 24 3
26 25 6
27 0 6
27 1 2
27 2 9
27 3 6
27 4 1
27 5 4
27 6 6
27 7 1
27 8 7
27 9 5
27 10 6
27 11 1
27 12 6
27 13 4
27 15 6
27 16 5
27 18 2
27 19 6
27 20 4
27 21 3
27 22 3
27 23 6
27 24 4
27 25 6
27 26 6
28 0 1
28 1 4
28 2 2
28 3 7
28 4 5
28 5 3
28 6 3
28 7 10
28 8 8
28 9 6
28 10 6
28 11 2
28 12 8
28 14 5
28 15 8
28 16 10
28 17 6
28 18 6
28 20 5
28 22 10
28 23 1
28 24 2
28 25 10
28 26 7
28 27 7
29 0 6
29 1 5
29 2 9
29 3 7
29 4 2
29 5 8
29 6 1
29 7 2
29 8 9
29 10 5
29 11 2
29 13 3
29 15 10
29 16 7
29 17 10
29 18 5
29 19 7
29 20 10
29 21 4
29 23 7
29 24 10
29 25 1
29 26 1
30 0 2
30 1 9
30 2 6
30 3 5
30 4 3
30 5 10
30 6 2
30 7 6
30 8 8
30 9 1
30 10 3
30 11 3
30 13 6
30 14 8
30 15 4
30 16 6
30 17 1
30 18 2
30 19 4
30 20 1
30 22 5
30 23 2
30 24 6
30 25 2
30 26 8
30 27 8
30 28 6
30 29 4
31 0 9
31 1 4
31 2 7
31 3 7
31 4 2
31 5 5
31 6 8
31 7 7
31 8 4
31 10 6
31 11 8
31 12 2
31 13 4
31 14 2
31 15 7
31 16 1
31 17 6
31 18 9
31 19 9
31 20 6
31 21 7
31 22 9
31 23 4
31 24 1
31 25 6
31 26 1
31 27 8
31 28 7
31 29 3
31 30 7
32 0 8
32 1 7
32 2 3
32 3 4
32 4 7
32 5 9
32 6 8
32 7 8
32 8 6
32 9 5
32 10 5
32 11 8
32 12 10
32 13 7
32 14 10
32 15 5
32 17 7
32 18 3
32 19 9
32 20 1
32 21 1
32 22 1
32 23 3
32 24 5
32 25 10
32 27 5
32 28 6
32 29 4
32 30 10
32 31 7
33 0 2
33 1 5
33 2 8
33 3 5
33 4 1
33 6 7
33 7 10
33 8 9
33 10 2
33 11 7
33 12 5
33 13 10
33 14 2
33 15 6
33 16 2
33 17 8
33 18 5
33 19 10
33 21 1
33 22 8
33 23 1
33 24 3
33 26 7
33 27 9
33 28 3
33 29 5
33 30 8
33 31 7
33 32 1
34 0 7
34 1 6
34 2 9
34 3 9
34 4 9
34 5 8
34 7 1
34 8 1
34 9 10
34 10 10
34 11 10
34 12 4
34 14 1
34 15 3
34 16 9
34 17 4
34 18 7
34 19 9
34 20 9
34 21 4
34 22 3
34 23 1
34 24 8
34 25 7
34 26 2
34 27 9
34 29 5
34 30 1
34 31 7
34 32 5
34 33 9
35 0 5
35 1 3
35 2 3
35 3 2
35 4 9
35 5 4
35 6 9
35 7 1
35 8 8
35 9 8
35 10 1
35 11 8
35 12 3
35 13 7
35 14 10
35 15 8
35 17 10
35 18 8
35 19 2
35 20 6
35 21 4
35 22 2
35 23 6
35 24 2
35 25 1
35 26 2
35 27 2
35 28 8
35 29 4
35 30 3
35 31 2
35 33 2
35 34 3
36 0 8
36 1 1
36 2 1
36 3 8
36 4 6
36 6 8
36 7 4
36 8 6
36 9 10
36 10 5
36 11 1
36 12 6
36 13 10
36 14 8
36 15 7
36 16 1
36 17 2
36 18 10
36 19 10
36 20 3
36 21 8
36 22 5
36 24 9
36 25 8
36 26 10
36 27 5
36 28 1
36 29 9
36 30 6
36 31 9
36 32 5
36 33 2
36 34 2
36 35 5
37 0 7
37 1 10
37 2 8
37 3 6
37 4 6
37 5 8
37 6 6
37 7 7
37 8 6
37 9 9
37 10 9
37 11 2
37 13 1
37 14 3
37 15 4
37 16 8
37 17 9
37 18 5
37 19 5
37 20 5
37 21 3
37 22 8
37 23 10
37 24 7
37 25 1
37 26 7
37 27 10
37 28 7
37 29 4
37 30 2
37 31 9
37 32 8
37 34 3
37 35 6
37 36 10
38 0 5
38 1 8
38 2 6
38 3 2
38 4 3
38 5 5
38 7 4
38 8 6
38 9 6
38 10 1
38 12 7
38 13 7
38 14 6
38 15 8
38 16 5
38 18 5
38 19 5
38 20 8
38 21 5
38 22 8
38 23 5
38 24 4
38 25 7
38 26 8
38 27 1
38 28 4
38 29 5
38 30 8
38 31 6
38 32 3
38 33 4
38 34 10
38 35 3
38 36 3
38 37 2
39 1 7
39 3 4
39 4 7
39 5 2
39 6 2
39 7 8
39 8 2
39 9 7
39 10 5
39 11 7
39 12 1
39 13 3
39 14 1
39 15 2
39 16 5
39 17 7
39 18 4
39 19 9
39 21 10
39 22 10
39 23 7
39 24 4
39 25 5
39 26 5
39 27 6
39 28 3
39 29 7
39 30 8
39 31 2
39 32 6
39 33 5
39 34 2
39 35 6
39 37 6
39 38 8
40 1 5
40 2 9
40 4 9
40 5 3
40 6 4
40 7 9
40 8 3
40 9 4
40 10 3
40 12 2
40 13 1
40 14 3
40 15 8
40 16 5
40 17 10
40 18 6
40 19 3
40 20 7
40 21 6
40 23 8
40 24 9
40 25 7
40 26 9
40 29 5
40 30 3
40 31 3
40 32 9
40 33 7
40 34 3
40 36 9
40 37 9
40 38 4
40 39 6
41 0 5
41 1 9
41 2 2
41 3 6
41 4 6
41 5 10
41 6 9
41 7 10
41 8 1
41 9 10
41 10 4
41 11 4
41 12 2
41 13 2
41 14 5
41 15 10
41 16 4
41 17 4
41 18 4
41 20 10
41 21 10
41 22 3
41 23 1
41 24 5
41 25 10
41 26 8
41 27 2
41 28 3
41 29 3
41 30 4
41 31 6
41 33 1
41 34 1
41 35 6
41 37 5
41 39 5
41 40 1
42 0 4
42 1 6
42 2 1
42 3 6
42 4 8
42 5 3
42 6 4
42 8 9
42 9 5
42 10 4
42 11 10
42 12 7
42 13 1
42 14 8
42 15 3
42 16 6
42 17 7
42 18 3
42 19 3
42 20 1
42 22 7
42 23 3
42 24 2
42 25 3
42 26 2
42 27 4
42 28 4
42 29 10
42 30 8
42 32 5
42 33 1
42 34 9
42 35 1
42 36 6
42 37 5
42 38 3
42 40 9
43 0 3
43 1 6
43 2 8
43 3 10
43 4 8
43 5 10
43 6 4
43 7 8
43 8 6
43 9 4
43 10 4
43 12 5
43 13 1
43 14 4
43 16 5
43 17 10
43 18 5
43 19 3
43 21 9
43 22 6
43 23 9
43 24 8
43 25 4
43 26 4
43 27 9
43 28 5
43 29 6
43 30 5
43 31 5
43 32 10
43 33 10
43 34 6
43 35 8
43 36 10
43 37 8
43 38 2
43 39 6
43 40 7
43 41 7
43 42 6
44 0 1
44 1 5
44 2 6
44 3 3
44 4 9
44 5 9
44 7 6
44 8 6
44 9 8
44 10 1
44 12 5
44 13 2
44 14 5
44 15 3
44 16 7
44 17 4
44 18 2
44 19 9
44 20 2
44 21 10
44 22 5
44 24 1
44 26 8
44 28 8
44 29 4
44 30 4
44 31 3
44 33 9
44 34 5
44 35 1
44 36 7
44 37 3
44 38 1
44 39 2
44 40 5
44 41 10
44 42 8
44 43 6
45 1 7
45 2 9
45 3 1
45 4 10
45 5 2
45 6 7
45 7 8
45 8 8
45 10 1
45 11 10
45 12 10
45 13 3
45 14 5
45 15 3
45 16 10
45 17 6
45 18 3
45 19 1
45 20 10
45 21 5
45 22 7
45 24 4
45 25 1
45 26 9
45 27 2
45 28 6
45 29 1
45 31 5
45 32 8
45 33 1
45 34 8
45 35 9
45 36 2
45 37 7
45 38 10
45 40 8
45 41 7
45 42 7
45 43 3
45 44 4
46 0 3
46 1 6
46 2 9
46 3 6
46 4 1
46 5 10
46 7 9
46 8 3
46 9 9
46 10 3
46 11 9
46 12 4
46 13 3
46 14 5
46 15 5
46 16 10
46 17 6
46 18 10
46 19 2
46 20 8
46 21 5
46 23 7
46 24 1
46 25 5
46 26 8
46 27 8
46 28 5
46 29 4
46 30 9
46 31 1
46 32 4
46 33 6
46 34 7
46 35 7
46 36 2
46 37 2
46 39 8
46 40 3
46 41 7
46 42 8
46 43 8
46 44 7
46 45 2
47 0 9
47 1 6
47 2 2
47 3 2
47 4 7
47 5 1
47 7 6
47 8 4
47 9 3
47 10 9
47 11 6
47 12 4
47 13 10
47 14 10
47 16 1
47 17 9
47 19 2
47 21 3
47 22 4
47 23 6
47 24 2
47 25 4
47 26 10
47 27 6
47 29 4
47 30 5
47 31 6
47 32 10
47 33 6
47 34 2
47 35 4
47 36 2
47 37 1
47 38 5
47 39 4
47 40 1
47 41 7
47 42 6
47 43 1
47 44 6
47 45 10
47 46 6
48 0 2
48 1 3
48 2 5
48 3 10
48 4 5
48 5 5
48 6 2
48 7 3
48 9 1
48 10 3
48 11 10
48 12 2
48 13 4
48 15 1
48 17 7
48 20 5
48 22 10
48 23 1
48 24 6
48 26 7
48 27 5
48 29 10
48 30 3
48 31 3
48 32 10
48 33 7
48 34 9
48 35 1
48 36 2
48 37 2
48 38 5
48 39 3
48 40 3
48 41 1
48 43 10
48 44 1
48 45 3
48 46 1
49 1 2
49 2 6
49 3 6
49 6 1
49 7 8
49 8 4
49 9 9
49 10 9
49 11 10
49 12 5
49 13 4
49 14 7
49 16 8
49 17 1
49 18 3
49 19 5
49 20 3
49 21 7
49 23 9
49 24 5
49 25 5
49 26 3
49 27 3
49 28 6
49 29 3
49 30 10
49 31 1
49 32 3
49 33 1
49 34 1
49 35 7
49 36 4
49 37 3
49 38 7
49 40 5
49 41 9
49 42 8
49 43 3
49 45 10
49 46 2
49 47 7
